c instance by G2
c solution = 1000100111011001100
c Known solution cost is 860 
p cnf 19 30
w 74 62 39 20 43 57 3 27 82 55 16 52 19 83 87 5 96 1 39
6 -4 -5 0
-7 14 1 0
6 8 9 0
-4 -9 11 0
11 1 -5 0
2 6 -15 0
-3 -13 15 0
10 -1 -13 0
-6 19 -5 0
-10 -16 -3 0
-17 14 5 0
18 -8 5 0
-18 7 2 0
9 11 18 0
17 -1 11 0
-8 -11 6 0
-10 15 16 0
-14 15 -9 0
15 14 -6 0
10 15 -6 0
7 1 5 0
18 -9 12 0
-17 -8 9 0
-2 -17 -8 0
15 4 8 0
14 13 11 0
-8 -2 19 0
-5 -19 -9 0
3 4 8 0
-7 -10 -12 0
